p cnf 168 507
c max 3 4 5 6 7 8 9 10 11 12 13 14 15 16 17 18 19 20 21 22 23 24 25 26 27 28 29 30 31 32 33 34 106 107 108 109 110 111 112 113 114 115 116 117 118 119 120 121 138 139 140 141 142 143 144 145 146 147 148 149 150 151 152 153 154 155 158 159 163 164 168 0
c ind 1 2 35 36 37 38 39 40 41 42 43 44 45 46 47 48 49 50 51 52 53 54 55 56 57 58 59 60 61 62 63 64 65 66 67 68 69 70 71 72 73 74 75 76 77 78 79 80 81 82 83 84 85 86 87 88 89 90 91 92 93 94 95 96 97 98 99 100 101 102 103 104 122 123 124 125 126 127 128 129 130 131 132 133 134 135 136 137 156 157 160 161 162 167 0
2 0
104 0
-105 0
-165 0
-166 0
167 0
-101 -69 0
-101 -70 0
-101 -71 0
-101 -72 0
-101 -73 0
-101 -74 0
-101 -75 0
-101 -76 0
-101 -77 0
-101 -78 0
-101 -79 0
-101 -80 0
-101 -81 0
-101 -82 0
-101 -83 0
-101 -84 0
-101 -85 0
-101 -86 0
-101 -87 0
-101 -88 0
-101 -89 0
-101 -90 0
-101 -99 0
-101 -94 0
-101 -95 0
-101 -97 0
-101 -98 0
18 34 -94 0
-18 34 97 0
18 34 -89 0
-8 24 74 0
16 -47 48 0
-14 30 80 0
13 29 -79 0
-10 -26 -76 0
15 31 -81 0
31 46 -47 0
-13 29 -45 0
3 4 36 0
-18 -34 -85 0
18 -34 97 0
14 30 -80 0
7 23 -73 0
18 34 -86 0
-18 34 89 0
14 -45 46 0
12 -43 44 0
-3 -4 19 -36 0
10 -41 42 0
-6 37 -38 0
-6 -22 -72 0
-3 19 69 0
-14 -30 -80 0
-11 42 -43 0
-18 34 88 0
-18 -34 -88 0
17 -18 -33 158 159 0
-13 44 -45 0
-18 -34 -89 0
18 -34 88 0
11 27 -77 0
-7 -23 -73 0
-33 34 -48 101 158 159 0
5 21 -71 0
-3 -19 -69 0
-12 43 -44 0
-16 -32 -82 0
4 -19 36 0
15 -31 47 0
-11 27 77 0
-30 -45 46 0
-18 -34 -95 0
18 34 -88 0
3 19 -69 0
-12 -28 -78 0
8 -24 74 0
29 44 -45 0
-32 -47 48 0
18 34 -95 0
18 -34 94 0
-10 26 76 0
15 -31 81 0
18 34 -98 0
18 -34 89 0
-18 34 94 0
-18 34 99 0
17 -33 34 158 159 0
-15 31 -47 0
9 -25 41 0
-9 25 75 0
-8 39 -40 0
14 -30 80 0
-8 24 -40 0
10 -26 76 0
12 -28 44 0
-18 34 90 0
12 -28 78 0
6 22 -72 0
-28 -43 44 0
-24 -39 40 0
18 -34 84 0
-18 -34 -86 0
-18 -34 -98 0
-4 20 -36 0
-18 34 158 159 0
32 47 -48 0
25 40 -41 0
-13 -29 -79 0
-12 28 78 0
18 34 -84 0
-29 -44 45 0
-15 -31 -81 0
18 -34 90 0
-18 -33 -48 101 158 159 0
4 20 -70 0
-16 32 -48 0
18 34 -99 0
27 42 -43 0
-15 46 -47 0
-7 23 73 0
18 -34 85 0
-5 21 -37 0
16 32 -82 0
-10 41 -42 0
21 36 -37 0
-18 -34 -94 0
8 -24 40 0
14 -30 46 0
-5 21 71 0
-18 -34 -90 0
-9 40 -41 0
4 -20 36 0
18 -34 87 0
-6 22 72 0
18 -34 95 0
-18 34 84 0
13 -44 45 0
10 -26 42 0
5 -21 37 0
-13 29 79 0
4 -20 70 0
3 -19 69 0
-5 -21 -71 0
-23 -38 39 0
6 -37 38 0
17 -18 -48 101 158 159 0
-15 31 81 0
-21 -36 37 0
8 -39 40 0
-19 -20 36 0
-11 -27 -77 0
69 70 71 72 73 74 75 76 77 78 79 80 81 82 83 84 85 86 87 88 89 90 94 95 97 98 99 101 0
9 25 -75 0
18 34 -97 0
16 -32 82 0
7 -23 73 0
-18 -34 -99 0
28 43 -44 0
6 -22 38 0
-9 -25 -75 0
-26 -41 42 0
-17 33 83 0
9 -40 41 0
18 34 -87 0
-7 38 -39 0
7 -23 39 0
18 34 -90 0
23 38 -39 0
-22 -37 38 0
-25 -40 41 0
-14 45 -46 0
16 -32 48 0
-18 34 87 0
-18 34 95 0
-14 30 -46 0
13 -29 79 0
5 -36 37 0
-31 -46 47 0
-11 27 -43 0
-18 34 86 0
-5 36 -37 0
-6 22 -38 0
11 -42 43 0
13 -29 45 0
-27 -42 43 0
30 45 -46 0
-9 25 -41 0
-3 19 20 -36 0
-12 28 -44 0
-18 -34 -84 0
6 -22 72 0
18 -34 86 0
3 -20 36 0
7 -38 39 0
-17 -33 -83 0
11 -27 43 0
9 -25 75 0
15 -46 47 0
18 34 -85 0
17 33 -83 0
-10 26 -42 0
26 41 -42 0
18 -34 98 0
24 39 -40 0
-8 -24 -74 0
-16 47 -48 0
-4 20 70 0
17 -33 83 0
12 28 -78 0
-4 -20 -70 0
-18 34 98 0
11 -27 77 0
-18 34 85 0
22 37 -38 0
10 26 -76 0
-16 32 82 0
17 34 -48 101 158 159 0
-7 23 -39 0
-18 -34 -97 0
8 24 -74 0
5 -21 71 0
-18 -34 -87 0
18 -34 99 0
18 -34 -101 0
-18 34 -101 0
-154 156 158 0
154 156 -158 0
-154 -156 -158 0
154 -156 158 0
-155 157 159 0
155 157 -159 0
155 -157 159 0
-155 -157 -159 0
161 -163 0
-161 163 0
162 -164 0
-162 164 0
-1 -3 122 0
1 -19 122 0
1 19 -122 0
-1 3 -122 0
1 -20 123 0
-1 -4 123 0
1 20 -123 0
-1 4 -123 0
-1 -5 124 0
1 -21 124 0
1 21 -124 0
-1 5 -124 0
1 -22 125 0
-1 -6 125 0
-1 6 -125 0
1 22 -125 0
1 -23 126 0
-1 -7 126 0
1 23 -126 0
-1 7 -126 0
-1 -8 127 0
1 -24 127 0
-1 8 -127 0
1 24 -127 0
-1 -9 128 0
1 -25 128 0
1 25 -128 0
-1 9 -128 0
1 -26 129 0
-1 -10 129 0
-1 10 -129 0
1 26 -129 0
-1 -11 130 0
1 -27 130 0
1 27 -130 0
-1 11 -130 0
1 -28 131 0
-1 -12 131 0
1 28 -131 0
-1 12 -131 0
1 -29 132 0
-1 -13 132 0
1 29 -132 0
-1 13 -132 0
-1 -14 133 0
1 -30 133 0
-1 14 -133 0
1 30 -133 0
1 -31 134 0
-1 -15 134 0
-1 15 -134 0
1 31 -134 0
1 -32 135 0
-1 -16 135 0
-1 16 -135 0
1 32 -135 0
1 -33 136 0
-1 -17 136 0
-1 17 -136 0
1 33 -136 0
1 -34 137 0
-1 -18 137 0
1 34 -137 0
-1 18 -137 0
1 102 0
-1 -102 0
103 -160 0
-103 102 0
-103 160 0
102 -101 0
102 -68 0
102 -160 0
68 101 -102 0
158 159 160 0
-160 -159 0
-160 -158 0
68 101 -160 0
66 67 68 0
-66 -67 68 0
68 101 158 159 0
-66 67 -68 0
66 -67 -68 0
18 -34 67 0
-18 34 67 0
-66 67 101 158 159 0
18 34 -67 0
-18 -34 -67 0
66 -67 101 158 159 0
20 35 -36 0
-4 35 -36 0
35 3 0
35 -19 0
-20 -35 36 0
4 -35 36 0
-3 19 -35 0
18 -65 66 0
-34 -65 66 0
18 -34 66 0
-18 65 -66 0
34 65 -66 0
-18 34 -66 0
34 -66 101 158 159 0
-18 -66 101 158 159 0
-34 -64 65 0
18 -64 65 0
18 -34 65 0
18 64 -65 0
-34 64 -65 0
-18 34 -65 0
-18 -65 101 158 159 0
34 -65 101 158 159 0
-34 -63 64 0
18 -63 64 0
18 -34 64 0
18 63 -64 0
-34 63 -64 0
-18 34 -64 0
-18 -64 101 158 159 0
34 -64 101 158 159 0
-34 -62 63 0
18 -62 63 0
18 -34 63 0
-34 62 -63 0
18 62 -63 0
-18 34 -63 0
-18 -63 101 158 159 0
34 -63 101 158 159 0
18 -61 62 0
-34 -61 62 0
18 -34 62 0
-34 61 -62 0
18 61 -62 0
-18 34 -62 0
-18 -62 101 158 159 0
34 -62 101 158 159 0
-34 -60 61 0
18 -60 61 0
18 -34 61 0
-34 60 -61 0
18 60 -61 0
-18 34 -61 0
-18 -61 101 158 159 0
34 -61 101 158 159 0
-34 -59 60 0
18 -59 60 0
18 -34 60 0
18 59 -60 0
-34 59 -60 0
-18 34 -60 0
-18 -60 101 158 159 0
34 -60 101 158 159 0
-34 -58 59 0
18 -58 59 0
18 -34 59 0
18 58 -59 0
-34 58 -59 0
-18 34 -59 0
-18 -59 101 158 159 0
34 -59 101 158 159 0
18 -57 58 0
-34 -57 58 0
18 -34 58 0
-34 57 -58 0
18 57 -58 0
-18 34 -58 0
-18 -58 101 158 159 0
34 -58 101 158 159 0
-34 -56 57 0
18 -56 57 0
18 -34 57 0
18 56 -57 0
-34 56 -57 0
-18 34 -57 0
-18 -57 101 158 159 0
34 -57 101 158 159 0
18 -55 56 0
-34 -55 56 0
18 -34 56 0
-34 55 -56 0
18 55 -56 0
-18 34 -56 0
-18 -56 101 158 159 0
34 -56 101 158 159 0
18 -54 55 0
-34 -54 55 0
18 -34 55 0
-34 54 -55 0
18 54 -55 0
-18 34 -55 0
-18 -55 101 158 159 0
34 -55 101 158 159 0
18 -53 54 0
-34 -53 54 0
18 -34 54 0
18 53 -54 0
-34 53 -54 0
-18 34 -54 0
-18 -54 101 158 159 0
34 -54 101 158 159 0
-34 -52 53 0
18 -52 53 0
18 -34 53 0
18 52 -53 0
-34 52 -53 0
-18 34 -53 0
-18 -53 101 158 159 0
34 -53 101 158 159 0
18 -51 52 0
-34 -51 52 0
18 -34 52 0
-34 51 -52 0
18 51 -52 0
-18 34 -52 0
-18 -52 101 158 159 0
34 -52 101 158 159 0
18 -50 51 0
-34 -50 51 0
18 -34 51 0
18 50 -51 0
-34 50 -51 0
-18 34 -51 0
-18 -51 101 158 159 0
34 -51 101 158 159 0
-34 -49 50 0
18 -49 50 0
18 -34 50 0
34 49 -50 0
-18 49 -50 0
-18 34 -50 0
-18 -50 101 158 159 0
34 -50 101 158 159 0
17 -48 49 0
-33 -48 49 0
17 -33 49 0
-17 48 -49 0
33 48 -49 0
-17 33 -49 0
-18 -49 101 158 159 0
34 -49 101 158 159 0
-18 34 96 0
18 -34 96 0
-96 -101 0
18 34 -96 0
-18 -34 -96 0
18 -34 100 0
-18 34 100 0
-100 -101 0
-18 -34 -100 0
18 34 -100 0
-18 34 91 0
18 -34 91 0
-91 -101 0
-18 -34 -91 0
18 34 -91 0
18 -34 92 0
-18 34 92 0
-92 -101 0
18 34 -92 0
-18 -34 -92 0
18 -34 93 0
-18 34 93 0
-93 -101 0
18 34 -93 0
-18 -34 -93 0
